CPXPARAM_TimeLimit                               7200
CPXPARAM_Read_DataCheck                          1
Parallel mode: deterministic, using up to 8 threads for concurrent optimization.
Tried aggregator 1 time.
No LP presolve or aggregator reductions.
Presolve time = 0.00 sec. (1.32 ticks)

Iteration log . . .
Iteration:     1   Dual objective     =          1177.000000
Iteration:    96   Dual objective     =          1177.000000
Perturbation started.
Iteration:   101   Dual objective     =          1177.000000
Iteration:   207   Dual objective     =          1177.012943
Iteration:   374   Dual objective     =          1177.013044
Iteration:   543   Dual objective     =          1177.013046
Iteration:   717   Dual objective     =          1177.013048
Iteration:   888   Dual objective     =          1177.013049
Removing perturbation.

Dual simplex solved model.

